NAME : portcgen-28-8
COMMENT : portcgen N=28, seed=8
TYPE : TSP
DIMENSION : 28
EDGE_WEIGHT_TYPE : EUC_2D
NODE_COORD_SECTION
1 -179253 10891
2 122617 121965
3 7243 -298278
4 -42908 -60822
5 -331970 111526
6 -14102 28613
7 -40191 -31506
8 142723 -164396
9 125513 -220961
10 100133 73023
11 47815 25067
12 90129 -132988
13 -77861 1324
14 -66286 137833
15 -99423 371846
16 -165028 280919
17 -231549 194415
18 -45368 134862
19 47785 -283396
20 -76683 215577
21 61061 248459
22 -141994 -62381
23 96429 -44659
24 40841 -131028
25 -134356 438188
26 -67946 -123801
27 255811 67081
28 -214693 40789
